64262 59706 
63328 60399 
64107 59879 
64146 59805 
63482 60398 
62618 60917 
60763 61612 
63062 60641 
62233 61090 
61453 61482 
63217 60468 
63178 60542 
61569 61383 
62171 61302 
62983 60799 
63608 60280 
64291 59549 
65132 58187 
65113 58225 
64749 58884 
61226 61503 
63945 59953 
62456 60991 
65094 58671 
65161 58117 
65265 57936 
60471 61636 
60006 61733 
60926 61587 
62645 60837 
61109 61525 
60410 61708 
61100 61578 
65557 57735 
64370 59467 
65604 57185 
64735 59059 
64590 59315 
63866 60111 
64551 59389 
64706 59216 
63618 60157 
59375 61777 
65676 55800 
65609 56354 
